1110000000001111
0001000000000000
1101000000000000
1100000100000000
0011001000000001
0100001100000001
0101010000000001
0110010001000000
1000010100000001
1000010100010000
1000010100000000
1101000000010101
1100000100010000
1010000000000011
1111110101000001
1100010000100100
0000111100001111
0000111100001111
0100101000100000
1100000010000100
0000000000111110
0000000001000001
1111110101000001
1100010000100100
0000111100001111
0000111100001111
0100101000100000
1100000010000100
0000000000111110
0000000001000001
1111110101000001
1100010000100100
0000111100001111
0000111100001111
0100101000100000
1100000010000100
0000000000111110
0000000001000001
1111110101000001
1100010000100100
0000111100001111
0000111100001111
0100101000100000
1100000010000100
0000000000111110
0000000001000001
1111110101000001
1100010000100100
0000111100001111
0000111100001111
0100101000100000
1100000010000100
0000000000111110
0000000001000001
1111110101000001
1100010000100100
0000111100001111
0000111100001111
0100101000100000
1100000010000100
0000000000111110
0000000001000001
1111110101000001
0000000000111110